p cnf 13 22
13 -12 6 0
-13 -11 -7 0
13 8 -6 0
13 6 3 0
-12 11 1 0
-12 -8 -6 0
12 -3 1 0
11 -8 6 0
11 8 1 0
-11 2 1 0
10 -8 3 0
10 7 -6 0
10 7 4 0
-10 6 -5 0
-9 8 -6 0
-9 -8 -4 0
-9 -6 -2 0
-9 5 -4 0
-8 7 -5 0
7 4 2 0
-5 4 -2 0
-5 3 -1 0
